p tw 75 85
1 2
2 13
3 4
3 19
4 5
5 6
5 21
6 7
7 8
7 47
8 62
9 10
10 11
11 12
12 14
13 24
14 15
15 16
15 17
16 17
17 18
18 72
19 20
20 72
21 22
22 23
23 25
24 35
25 26
26 27
27 28
27 42
28 29
29 30
30 31
31 32
32 33
33 34
33 23
34 36
35 46
36 37
37 38
38 39
39 40
40 41
40 36
41 72
42 43
43 44
44 45
45 72
46 57
47 48
48 49
49 50
50 51
51 52
51 56
52 53
53 54
54 55
55 56
55 59
56 58
57 68
58 59
59 60
60 61
61 72
62 63
63 64
64 65
65 66
66 67
67 69
67 70
68 74
69 70
70 71
71 72
72 73
74 75
74 9
75 3
